4 
5  21 34 48 57 
6  12 19 27 34 39 44 49 54 59 
7  04 09 14 19 24 29 34 39 44 49 54 59 
8  04 09 14 19 24 29 34 39 46 54 
9  02 10 17 25 32 39 47 54 
10  02 09 17 24 32 39 47 54 
11  02 09 17 24 32 39 47 54 
12  02 09 17 24 32 39 47 54 
13  02 10 18 25 33 40 48 55 
14  02 10 18 25 33 39 47 54 59 
15  04 09 14 19 24 29 34 39 44 49 54 59 
16  04 09 14 19 24 29 34 39 44 49 54 59 
17  04 09 14 19 24 29 34 39 44 49 54 59 
18  04 09 14 19 24 29 34 43 49 56 
19  02 09 17 24 32 40 47 54 
20  02 09 17 24 31 39 47 54 
21  01 09 17 24 32 39 47 54 
22  03 18 35 49 
23  09 24 43 
0 
